\ENCODING=ISO-8859-1
\Problem name: ilog.cplex

Maximize
 obj: 504 x(0)#0 + 803 x(1)#1 + 667 x(2)#2 + 1103 x(3)#3 + 834 x(4)#4
      + 585 x(5)#5 + 811 x(6)#6 + 856 x(7)#7 + 690 x(8)#8 + 832 x(9)#9
      + 846 x(10)#10 + 813 x(11)#11 + 868 x(12)#12 + 793 x(13)#13
      + 825 x(14)#14 + 1002 x(15)#15 + 860 x(16)#16 + 615 x(17)#17
      + 540 x(18)#18 + 797 x(19)#19 + 616 x(20)#20 + 660 x(21)#21
      + 707 x(22)#22 + 866 x(23)#23 + 647 x(24)#24 + 746 x(25)#25
      + 1006 x(26)#26 + 608 x(27)#27 + 877 x(28)#28 + 900 x(29)#29
      + 573 x(30)#30 + 788 x(31)#31 + 484 x(32)#32 + 853 x(33)#33
      + 942 x(34)#34 + 630 x(35)#35 + 591 x(36)#36 + 630 x(37)#37
      + 640 x(38)#38 + 1169 x(39)#39 + 932 x(40)#40 + 1034 x(41)#41
      + 957 x(42)#42 + 798 x(43)#43 + 669 x(44)#44 + 625 x(45)#45
      + 467 x(46)#46 + 1051 x(47)#47 + 552 x(48)#48 + 717 x(49)#49
      + 654 x(50)#50 + 388 x(51)#51 + 559 x(52)#52 + 555 x(53)#53
      + 1104 x(54)#54 + 783 x(55)#55 + 959 x(56)#56 + 668 x(57)#57
      + 507 x(58)#58 + 855 x(59)#59 + 986 x(60)#60 + 831 x(61)#61
      + 821 x(62)#62 + 825 x(63)#63 + 868 x(64)#64 + 852 x(65)#65
      + 832 x(66)#66 + 828 x(67)#67 + 799 x(68)#68 + 686 x(69)#69
      + 510 x(70)#70 + 671 x(71)#71 + 575 x(72)#72 + 740 x(73)#73
      + 510 x(74)#74 + 675 x(75)#75 + 996 x(76)#76 + 636 x(77)#77
      + 826 x(78)#78 + 1022 x(79)#79 + 1140 x(80)#80 + 654 x(81)#81
      + 909 x(82)#82 + 799 x(83)#83 + 1162 x(84)#84 + 653 x(85)#85
      + 814 x(86)#86 + 625 x(87)#87 + 599 x(88)#88 + 476 x(89)#89
      + 767 x(90)#90 + 954 x(91)#91 + 906 x(92)#92 + 904 x(93)#93
      + 649 x(94)#94 + 873 x(95)#95 + 565 x(96)#96 + 853 x(97)#97
      + 1008 x(98)#98 + 632 x(99)#99
Subject To
 c1: 42 x(0)#0 + 41 x(1)#1 + 523 x(2)#2 + 215 x(3)#3 + 819 x(4)#4 + 551 x(5)#5
     + 69 x(6)#6 + 193 x(7)#7 + 582 x(8)#8 + 375 x(9)#9 + 367 x(10)#10
     + 478 x(11)#11 + 162 x(12)#12 + 898 x(13)#13 + 550 x(14)#14 + 553 x(15)#15
     + 298 x(16)#16 + 577 x(17)#17 + 493 x(18)#18 + 183 x(19)#19 + 260 x(20)#20
     + 224 x(21)#21 + 852 x(22)#22 + 394 x(23)#23 + 958 x(24)#24 + 282 x(25)#25
     + 402 x(26)#26 + 604 x(27)#27 + 164 x(28)#28 + 308 x(29)#29 + 218 x(30)#30
     + 61 x(31)#31 + 273 x(32)#32 + 772 x(33)#33 + 191 x(34)#34 + 117 x(35)#35
     + 276 x(36)#36 + 877 x(37)#37 + 415 x(38)#38 + 873 x(39)#39 + 902 x(40)#40
     + 465 x(41)#41 + 320 x(42)#42 + 870 x(43)#43 + 244 x(44)#44 + 781 x(45)#45
     + 86 x(46)#46 + 622 x(47)#47 + 665 x(48)#48 + 155 x(49)#49 + 680 x(50)#50
     + 101 x(51)#51 + 665 x(52)#52 + 227 x(53)#53 + 597 x(54)#54 + 354 x(55)#55
     + 597 x(56)#56 + 79 x(57)#57 + 162 x(58)#58 + 998 x(59)#59 + 849 x(60)#60
     + 136 x(61)#61 + 112 x(62)#62 + 751 x(63)#63 + 735 x(64)#64 + 884 x(65)#65
     + 71 x(66)#66 + 449 x(67)#67 + 266 x(68)#68 + 420 x(69)#69 + 797 x(70)#70
     + 945 x(71)#71 + 746 x(72)#72 + 46 x(73)#73 + 44 x(74)#74 + 545 x(75)#75
     + 882 x(76)#76 + 72 x(77)#77 + 383 x(78)#78 + 714 x(79)#79 + 987 x(80)#80
     + 183 x(81)#81 + 731 x(82)#82 + 301 x(83)#83 + 718 x(84)#84 + 91 x(85)#85
     + 109 x(86)#86 + 567 x(87)#87 + 708 x(88)#88 + 507 x(89)#89 + 983 x(90)#90
     + 808 x(91)#91 + 766 x(92)#92 + 615 x(93)#93 + 554 x(94)#94 + 282 x(95)#95
     + 995 x(96)#96 + 946 x(97)#97 + 651 x(98)#98 + 298 x(99)#99 <= 11927
 c2: 509 x(0)#0 + 883 x(1)#1 + 229 x(2)#2 + 569 x(3)#3 + 706 x(4)#4
     + 639 x(5)#5 + 114 x(6)#6 + 727 x(7)#7 + 491 x(8)#8 + 481 x(9)#9
     + 681 x(10)#10 + 948 x(11)#11 + 687 x(12)#12 + 941 x(13)#13 + 350 x(14)#14
     + 253 x(15)#15 + 573 x(16)#16 + 40 x(17)#17 + 124 x(18)#18 + 384 x(19)#19
     + 660 x(20)#20 + 951 x(21)#21 + 739 x(22)#22 + 329 x(23)#23 + 146 x(24)#24
     + 593 x(25)#25 + 658 x(26)#26 + 816 x(27)#27 + 638 x(28)#28 + 717 x(29)#29
     + 779 x(30)#30 + 289 x(31)#31 + 430 x(32)#32 + 851 x(33)#33 + 937 x(34)#34
     + 289 x(35)#35 + 159 x(36)#36 + 260 x(37)#37 + 930 x(38)#38 + 248 x(39)#39
     + 656 x(40)#40 + 833 x(41)#41 + 892 x(42)#42 + 60 x(43)#43 + 278 x(44)#44
     + 741 x(45)#45 + 297 x(46)#46 + 967 x(47)#47 + 86 x(48)#48 + 249 x(49)#49
     + 354 x(50)#50 + 614 x(51)#51 + 836 x(52)#52 + 290 x(53)#53 + 893 x(54)#54
     + 857 x(55)#55 + 158 x(56)#56 + 869 x(57)#57 + 206 x(58)#58 + 504 x(59)#59
     + 799 x(60)#60 + 758 x(61)#61 + 431 x(62)#62 + 580 x(63)#63 + 780 x(64)#64
     + 788 x(65)#65 + 583 x(66)#66 + 641 x(67)#67 + 32 x(68)#68 + 653 x(69)#69
     + 252 x(70)#70 + 709 x(71)#71 + 129 x(72)#72 + 368 x(73)#73 + 440 x(74)#74
     + 314 x(75)#75 + 287 x(76)#76 + 854 x(77)#77 + 460 x(78)#78 + 594 x(79)#79
     + 512 x(80)#80 + 239 x(81)#81 + 719 x(82)#82 + 751 x(83)#83 + 708 x(84)#84
     + 670 x(85)#85 + 269 x(86)#86 + 832 x(87)#87 + 137 x(88)#88 + 356 x(89)#89
     + 960 x(90)#90 + 651 x(91)#91 + 398 x(92)#92 + 893 x(93)#93 + 407 x(94)#94
     + 477 x(95)#95 + 552 x(96)#96 + 805 x(97)#97 + 881 x(98)#98 + 850 x(99)#99
     <= 13727
 c3: 806 x(0)#0 + 361 x(1)#1 + 199 x(2)#2 + 781 x(3)#3 + 596 x(4)#4
     + 669 x(5)#5 + 957 x(6)#6 + 358 x(7)#7 + 259 x(8)#8 + 888 x(9)#9
     + 319 x(10)#10 + 751 x(11)#11 + 275 x(12)#12 + 177 x(13)#13 + 883 x(14)#14
     + 749 x(15)#15 + 229 x(16)#16 + 265 x(17)#17 + 282 x(18)#18 + 694 x(19)#19
     + 819 x(20)#20 + 77 x(21)#21 + 190 x(22)#22 + 551 x(23)#23 + 140 x(24)#24
     + 442 x(25)#25 + 867 x(26)#26 + 283 x(27)#27 + 137 x(28)#28 + 359 x(29)#29
     + 445 x(30)#30 + 58 x(31)#31 + 440 x(32)#32 + 192 x(33)#33 + 485 x(34)#34
     + 744 x(35)#35 + 844 x(36)#36 + 969 x(37)#37 + 50 x(38)#38 + 833 x(39)#39
     + 57 x(40)#40 + 877 x(41)#41 + 482 x(42)#42 + 732 x(43)#43 + 968 x(44)#44
     + 113 x(45)#45 + 486 x(46)#46 + 710 x(47)#47 + 439 x(48)#48 + 747 x(49)#49
     + 174 x(50)#50 + 260 x(51)#51 + 877 x(52)#52 + 474 x(53)#53 + 841 x(54)#54
     + 422 x(55)#55 + 280 x(56)#56 + 684 x(57)#57 + 330 x(58)#58 + 910 x(59)#59
     + 791 x(60)#60 + 322 x(61)#61 + 404 x(62)#62 + 403 x(63)#63 + 519 x(64)#64
     + 148 x(65)#65 + 948 x(66)#66 + 414 x(67)#67 + 894 x(68)#68 + 147 x(69)#69
     + 73 x(70)#70 + 297 x(71)#71 + 97 x(72)#72 + 651 x(73)#73 + 380 x(74)#74
     + 67 x(75)#75 + 582 x(76)#76 + 973 x(77)#77 + 143 x(78)#78 + 732 x(79)#79
     + 624 x(80)#80 + 518 x(81)#81 + 847 x(82)#82 + 113 x(83)#83 + 382 x(84)#84
     + 97 x(85)#85 + 905 x(86)#86 + 398 x(87)#87 + 859 x(88)#88 + 4 x(89)#89
     + 142 x(90)#90 + 110 x(91)#91 + 11 x(92)#92 + 213 x(93)#93 + 398 x(94)#94
     + 173 x(95)#95 + 106 x(96)#96 + 331 x(97)#97 + 254 x(98)#98 + 447 x(99)#99
     <= 11551
 c4: 404 x(0)#0 + 197 x(1)#1 + 817 x(2)#2 + 1000 x(3)#3 + 44 x(4)#4
     + 307 x(5)#5 + 39 x(6)#6 + 659 x(7)#7 + 46 x(8)#8 + 334 x(9)#9
     + 448 x(10)#10 + 599 x(11)#11 + 931 x(12)#12 + 776 x(13)#13 + 263 x(14)#14
     + 980 x(15)#15 + 807 x(16)#16 + 378 x(17)#17 + 278 x(18)#18 + 841 x(19)#19
     + 700 x(20)#20 + 210 x(21)#21 + 542 x(22)#22 + 636 x(23)#23 + 388 x(24)#24
     + 129 x(25)#25 + 203 x(26)#26 + 110 x(27)#27 + 817 x(28)#28 + 502 x(29)#29
     + 657 x(30)#30 + 804 x(31)#31 + 662 x(32)#32 + 989 x(33)#33 + 585 x(34)#34
     + 645 x(35)#35 + 113 x(36)#36 + 436 x(37)#37 + 610 x(38)#38 + 948 x(39)#39
     + 919 x(40)#40 + 115 x(41)#41 + 967 x(42)#42 + 13 x(43)#43 + 445 x(44)#44
     + 449 x(45)#45 + 740 x(46)#46 + 592 x(47)#47 + 327 x(48)#48 + 167 x(49)#49
     + 368 x(50)#50 + 335 x(51)#51 + 179 x(52)#52 + 909 x(53)#53 + 825 x(54)#54
     + 614 x(55)#55 + 987 x(56)#56 + 350 x(57)#57 + 179 x(58)#58 + 415 x(59)#59
     + 821 x(60)#60 + 525 x(61)#61 + 774 x(62)#62 + 283 x(63)#63 + 427 x(64)#64
     + 275 x(65)#65 + 659 x(66)#66 + 392 x(67)#67 + 73 x(68)#68 + 896 x(69)#69
     + 68 x(70)#70 + 982 x(71)#71 + 697 x(72)#72 + 421 x(73)#73 + 246 x(74)#74
     + 672 x(75)#75 + 649 x(76)#76 + 731 x(77)#77 + 191 x(78)#78 + 514 x(79)#79
     + 983 x(80)#80 + 886 x(81)#81 + 95 x(82)#82 + 846 x(83)#83 + 689 x(84)#84
     + 206 x(85)#85 + 417 x(86)#86 + 14 x(87)#87 + 735 x(88)#88 + 267 x(89)#89
     + 822 x(90)#90 + 977 x(91)#91 + 302 x(92)#92 + 687 x(93)#93 + 118 x(94)#94
     + 990 x(95)#95 + 323 x(96)#96 + 993 x(97)#97 + 525 x(98)#98 + 322 x(99)#99
     <= 13056
 c5: 475 x(0)#0 + 36 x(1)#1 + 287 x(2)#2 + 577 x(3)#3 + 45 x(4)#4 + 700 x(5)#5
     + 803 x(6)#6 + 654 x(7)#7 + 196 x(8)#8 + 844 x(9)#9 + 657 x(10)#10
     + 387 x(11)#11 + 518 x(12)#12 + 143 x(13)#13 + 515 x(14)#14 + 335 x(15)#15
     + 942 x(16)#16 + 701 x(17)#17 + 332 x(18)#18 + 803 x(19)#19 + 265 x(20)#20
     + 922 x(21)#21 + 908 x(22)#22 + 139 x(23)#23 + 995 x(24)#24 + 845 x(25)#25
     + 487 x(26)#26 + 100 x(27)#27 + 447 x(28)#28 + 653 x(29)#29 + 649 x(30)#30
     + 738 x(31)#31 + 424 x(32)#32 + 475 x(33)#33 + 425 x(34)#34 + 926 x(35)#35
     + 795 x(36)#36 + 47 x(37)#37 + 136 x(38)#38 + 801 x(39)#39 + 904 x(40)#40
     + 740 x(41)#41 + 768 x(42)#42 + 460 x(43)#43 + 76 x(44)#44 + 660 x(45)#45
     + 500 x(46)#46 + 915 x(47)#47 + 897 x(48)#48 + 25 x(49)#49 + 716 x(50)#50
     + 557 x(51)#51 + 72 x(52)#52 + 696 x(53)#53 + 653 x(54)#54 + 933 x(55)#55
     + 420 x(56)#56 + 582 x(57)#57 + 810 x(58)#58 + 861 x(59)#59 + 758 x(60)#60
     + 647 x(61)#61 + 237 x(62)#62 + 631 x(63)#63 + 271 x(64)#64 + 91 x(65)#65
     + 75 x(66)#66 + 756 x(67)#67 + 409 x(68)#68 + 440 x(69)#69 + 483 x(70)#70
     + 336 x(71)#71 + 765 x(72)#72 + 637 x(73)#73 + 981 x(74)#74 + 980 x(75)#75
     + 202 x(76)#76 + 35 x(77)#77 + 594 x(78)#78 + 689 x(79)#79 + 602 x(80)#80
     + 76 x(81)#81 + 767 x(82)#82 + 693 x(83)#83 + 893 x(84)#84 + 160 x(85)#85
     + 785 x(86)#86 + 311 x(87)#87 + 417 x(88)#88 + 748 x(89)#89 + 375 x(90)#90
     + 362 x(91)#91 + 617 x(92)#92 + 553 x(93)#93 + 474 x(94)#94 + 915 x(95)#95
     + 457 x(96)#96 + 261 x(97)#97 + 350 x(98)#98 + 635 x(99)#99 <= 13460
Bounds
 0 <= x(0)#0 <= 1
 0 <= x(1)#1 <= 1
 0 <= x(2)#2 <= 1
 0 <= x(3)#3 <= 1
 0 <= x(4)#4 <= 1
 0 <= x(5)#5 <= 1
 0 <= x(6)#6 <= 1
 0 <= x(7)#7 <= 1
 0 <= x(8)#8 <= 1
 0 <= x(9)#9 <= 1
 0 <= x(10)#10 <= 1
 0 <= x(11)#11 <= 1
 0 <= x(12)#12 <= 1
 0 <= x(13)#13 <= 1
 0 <= x(14)#14 <= 1
 0 <= x(15)#15 <= 1
 0 <= x(16)#16 <= 1
 0 <= x(17)#17 <= 1
 0 <= x(18)#18 <= 1
 0 <= x(19)#19 <= 1
 0 <= x(20)#20 <= 1
 0 <= x(21)#21 <= 1
 0 <= x(22)#22 <= 1
 0 <= x(23)#23 <= 1
 0 <= x(24)#24 <= 1
 0 <= x(25)#25 <= 1
 0 <= x(26)#26 <= 1
 0 <= x(27)#27 <= 1
 0 <= x(28)#28 <= 1
 0 <= x(29)#29 <= 1
 0 <= x(30)#30 <= 1
 0 <= x(31)#31 <= 1
 0 <= x(32)#32 <= 1
 0 <= x(33)#33 <= 1
 0 <= x(34)#34 <= 1
 0 <= x(35)#35 <= 1
 0 <= x(36)#36 <= 1
 0 <= x(37)#37 <= 1
 0 <= x(38)#38 <= 1
 0 <= x(39)#39 <= 1
 0 <= x(40)#40 <= 1
 0 <= x(41)#41 <= 1
 0 <= x(42)#42 <= 1
 0 <= x(43)#43 <= 1
 0 <= x(44)#44 <= 1
 0 <= x(45)#45 <= 1
 0 <= x(46)#46 <= 1
 0 <= x(47)#47 <= 1
 0 <= x(48)#48 <= 1
 0 <= x(49)#49 <= 1
 0 <= x(50)#50 <= 1
 0 <= x(51)#51 <= 1
 0 <= x(52)#52 <= 1
 0 <= x(53)#53 <= 1
 0 <= x(54)#54 <= 1
 0 <= x(55)#55 <= 1
 0 <= x(56)#56 <= 1
 0 <= x(57)#57 <= 1
 0 <= x(58)#58 <= 1
 0 <= x(59)#59 <= 1
 0 <= x(60)#60 <= 1
 0 <= x(61)#61 <= 1
 0 <= x(62)#62 <= 1
 0 <= x(63)#63 <= 1
 0 <= x(64)#64 <= 1
 0 <= x(65)#65 <= 1
 0 <= x(66)#66 <= 1
 0 <= x(67)#67 <= 1
 0 <= x(68)#68 <= 1
 0 <= x(69)#69 <= 1
 0 <= x(70)#70 <= 1
 0 <= x(71)#71 <= 1
 0 <= x(72)#72 <= 1
 0 <= x(73)#73 <= 1
 0 <= x(74)#74 <= 1
 0 <= x(75)#75 <= 1
 0 <= x(76)#76 <= 1
 0 <= x(77)#77 <= 1
 0 <= x(78)#78 <= 1
 0 <= x(79)#79 <= 1
 0 <= x(80)#80 <= 1
 0 <= x(81)#81 <= 1
 0 <= x(82)#82 <= 1
 0 <= x(83)#83 <= 1
 0 <= x(84)#84 <= 1
 0 <= x(85)#85 <= 1
 0 <= x(86)#86 <= 1
 0 <= x(87)#87 <= 1
 0 <= x(88)#88 <= 1
 0 <= x(89)#89 <= 1
 0 <= x(90)#90 <= 1
 0 <= x(91)#91 <= 1
 0 <= x(92)#92 <= 1
 0 <= x(93)#93 <= 1
 0 <= x(94)#94 <= 1
 0 <= x(95)#95 <= 1
 0 <= x(96)#96 <= 1
 0 <= x(97)#97 <= 1
 0 <= x(98)#98 <= 1
 0 <= x(99)#99 <= 1
Generals
 x(0)#0  x(1)#1  x(2)#2  x(3)#3  x(4)#4  x(5)#5  x(6)#6  x(7)#7  x(8)#8 
 x(9)#9  x(10)#10  x(11)#11  x(12)#12  x(13)#13  x(14)#14  x(15)#15  x(16)#16 
 x(17)#17  x(18)#18  x(19)#19  x(20)#20  x(21)#21  x(22)#22  x(23)#23 
 x(24)#24  x(25)#25  x(26)#26  x(27)#27  x(28)#28  x(29)#29  x(30)#30 
 x(31)#31  x(32)#32  x(33)#33  x(34)#34  x(35)#35  x(36)#36  x(37)#37 
 x(38)#38  x(39)#39  x(40)#40  x(41)#41  x(42)#42  x(43)#43  x(44)#44 
 x(45)#45  x(46)#46  x(47)#47  x(48)#48  x(49)#49  x(50)#50  x(51)#51 
 x(52)#52  x(53)#53  x(54)#54  x(55)#55  x(56)#56  x(57)#57  x(58)#58 
 x(59)#59  x(60)#60  x(61)#61  x(62)#62  x(63)#63  x(64)#64  x(65)#65 
 x(66)#66  x(67)#67  x(68)#68  x(69)#69  x(70)#70  x(71)#71  x(72)#72 
 x(73)#73  x(74)#74  x(75)#75  x(76)#76  x(77)#77  x(78)#78  x(79)#79 
 x(80)#80  x(81)#81  x(82)#82  x(83)#83  x(84)#84  x(85)#85  x(86)#86 
 x(87)#87  x(88)#88  x(89)#89  x(90)#90  x(91)#91  x(92)#92  x(93)#93 
 x(94)#94  x(95)#95  x(96)#96  x(97)#97  x(98)#98  x(99)#99 
End
